n = 16;
m = 26;
pre = [1,1,2,2,3,3,3,4,4,4,5,6,6,7,7,8,9,9,10,
       11,12,12,12,13,14,15];
suc = [2,6,3,7,4,8,11,5,8,9,9,8,10,8,12,12,13,16,11,
       14,13,14,15,15,15,16];

d = 3;
first = [2,3,5];
second = [6,15,11];
    
